
Gurobi 11.0.3 (linux64) logging started Mon Nov 25 03:33:06 2024

Set parameter LogFile to value "/home/yihong/Coding/OR_SUC/SUC_results_bigM100000_thread4/case24_ieee_rts_theta0.1_epsilon0.025_gurobi_seed1250000_num_gen100_N_WDR100_load_scaling_factor1_exact_T20quadra_cost.txt"
Set parameter TimeLimit to value 3600
Gurobi Optimizer version 11.0.3 build v11.0.3rc0 (linux64 - "Ubuntu 20.04.6 LTS")

CPU model: AMD EPYC 7532 32-Core Processor, instruction set [SSE2|AVX|AVX2]
Thread count: 64 physical cores, 128 logical processors, using up to 4 threads

Optimize a model with 43303 rows, 25001 columns and 593882 nonzeros
Model fingerprint: 0xc5d6915d
Model has 2000 quadratic constraints
Variable types: 22901 continuous, 2100 integer (2100 binary)
Coefficient statistics:
  Matrix range     [3e-04, 1e+05]
  QMatrix range    [2e-03, 8e-03]
  QLMatrix range   [8e-02, 6e+01]
  Objective range  [1e+00, 1e+00]
  Bounds range     [1e+00, 1e+00]
  RHS range        [1e+00, 1e+05]
Presolve removed 35008 rows and 10802 columns
Presolve time: 0.28s
Presolved: 8295 rows, 14199 columns, 53532 nonzeros
Presolved model has 2000 quadratic constraint(s)
Variable types: 12132 continuous, 2067 integer (2067 binary)

Root relaxation: objective 2.951935e+04, 6364 iterations, 0.15 seconds (0.20 work units)

    Nodes    |    Current Node    |     Objective Bounds      |     Work
 Expl Unexpl |  Obj  Depth IntInf | Incumbent    BestBd   Gap | It/Node Time

     0     0 29519.3546    0    4          - 29519.3546      -     -    0s
     0     0 277165.805    0  609          - 277165.805      -     -    0s
     0     0 511483.974    0  635          - 511483.974      -     -    1s
     0     0 511518.274    0  395          - 511518.274      -     -    1s
     0     0 511889.844    0  264          - 511889.844      -     -    1s
     0     0 511894.848    0  264          - 511894.848      -     -    1s
     0     0 512031.689    0  263          - 512031.689      -     -    1s
     0     0 512032.878    0  263          - 512032.878      -     -    1s
     0     0 512032.970    0  263          - 512032.970      -     -    1s
     0     2 512050.471    0  263          - 512050.471      -     -    1s
H  597   480                    521988.69122 512161.483  1.88%  21.7    3s
*  597   480             160    521988.69122 512161.483  1.88%  21.7    3s
H  724   270                    512576.58120 512165.940  0.08%  22.2    4s
*  724   270             171    512576.58120 512165.940  0.08%  22.4    4s

Cutting planes:
  Gomory: 9
  Implied bound: 303
  MIR: 136
  Flow cover: 235
  PSD: 3

Explored 738 nodes (34554 simplex iterations) in 5.55 seconds (5.93 work units)
Thread count was 4 (of 128 available processors)

Solution count 3: 512577 512577 521989 

Optimal solution found (tolerance 1.00e-03)
Warning: max constraint violation (3.3944e-07) exceeds tolerance
Best objective 5.125765812007e+05, best bound 5.121659399620e+05, gap 0.0801%
